#######################################
### Exact MIP solver for the HHCRSP ###
#######################################
-- Instance file: new-instances/HHCRSP_50_10_16_1.0_R_R.txt
-- Max threads: 4
-- Time limit: 999999 seconds
-- Use initial solution: No
Trivial flow violations prevented generating 6238 variables.
Model exported.
Version identifier: 20.1.0.0 | 2020-11-10 | 9bedb6d68
CPXPARAM_Threads                                 4
CPXPARAM_TimeLimit                               999999
Parallel mode: deterministic, using up to 4 threads for concurrent optimization:
 * Starting dual Simplex on 1 thread...
 * Starting Barrier on 3 threads...
Tried aggregator 1 time.
LP Presolve eliminated 1536 rows and 457 columns.
Reduced LP has 8216 rows, 7917 columns, and 72194 nonzeros.
Presolve time = 0.04 sec. (20.61 ticks)
Symmetry aggregator did 6550 additional substitutions.

Iteration log . . .
Iteration:     1   Dual objective     =             0.000000

Dual crossover.
  Dual:  Fixing 103 variables.
      102 DMoves:  Infeasibility  1.83741928e-14  Objective  1.26333333e+02
        0 DMoves:  Infeasibility  1.65978359e-14  Objective  1.26333333e+02
  Dual:  Pushed 10, exchanged 93.
  Primal:  Fixing 37 variables.
       36 PMoves:  Infeasibility  5.55111512e-17  Objective  1.26333333e+02
        0 PMoves:  Infeasibility  2.22044605e-16  Objective  1.26333333e+02
  Primal:  Pushed 13, exchanged 24.

Dual simplex solved model.


Solution status from MIP model:
-- Processing time: 0.072 sec.
-- Memory used: 74.0215 MB
-- Best bound: inf
-- Obj value: 126.333
-- Gap: inf%
-- Total distance: 379
-- Total tardiness: 0
-- Largest tardiness: 0
